words_easy_train/words_655_SAT.qaiger
aag 63 24 0 1 39
24
48
36
16
44
40
46
30
8
42
18
14
6
20
26
4
32
10
12
28
2
38
34
22
126
50 41 25
52 50 8
54 51 9
56 55 53
58 35 19
60 58 3
62 59 2
64 63 61
66 64 57
68 43 27
70 68 11
72 71 66
74 69 10
76 47 31
78 76 14
80 77 15
82 81 79
84 83 75
86 39 23
88 86 6
90 87 7
92 91 89
94 93 84
96 94 72
98 49 33
100 98 16
102 99 17
104 103 101
106 37 21
108 106 5
110 107 4
112 111 109
114 112 105
116 45 29
118 117 12
120 116 13
122 121 119
124 122 114
126 124 96
i0 1 x1[3]
i1 2 y1[7]
i2 2 y1[1]
i3 2 y2[7]
i4 2 y1[5]
i5 2 y1[3]
i6 2 y1[6]
i7 1 x1[6]
i8 2 y2[3]
i9 2 y1[4]
i10 1 x1[0]
i11 2 y2[6]
i12 2 y2[2]
i13 1 x1[1]
i14 1 x1[4]
i15 2 y2[1]
i16 1 x1[7]
i17 2 y2[4]
i18 2 y2[5]
i19 1 x1[5]
i20 2 y2[0]
i21 2 y1[2]
i22 2 y1[0]
i23 1 x1[2]
o0 bool[0]
c
simplified
  ==
    invert
      2 y2
    or
      1 x1
      2 y1
