words_easy_train/words_655_SAT.qaiger.qdimacs
p cnf 63 118
a 9 10 11 12 13 14 15 16 0
e 1 2 3 4 5 6 7 8 17 18 19 20 21 22 23 24 25 26 27 28 29 30 31 32 33 34 35 36 37 38 39 40 41 42 43 44 45 46 47 48 49 50 51 52 53 54 55 56 57 58 59 60 61 62 63 0
20 12 25 0
-20 -25 0
-12 -25 0
-25 -4 26 0
25 -26 0
4 -26 0
25 4 27 0
-25 -27 0
-4 -27 0
27 26 28 0
-27 -28 0
-26 -28 0
17 9 29 0
-17 -29 0
-9 -29 0
-29 1 30 0
29 -30 0
-1 -30 0
29 -1 31 0
-29 -31 0
1 -31 0
31 30 32 0
-31 -32 0
-30 -32 0
-32 28 33 0
32 -33 0
-28 -33 0
21 13 34 0
-21 -34 0
-13 -34 0
-34 5 35 0
34 -35 0
-5 -35 0
35 -33 36 0
-35 -36 0
33 -36 0
34 -5 37 0
-34 -37 0
5 -37 0
23 15 38 0
-23 -38 0
-15 -38 0
-38 -7 39 0
38 -39 0
7 -39 0
38 7 40 0
-38 -40 0
-7 -40 0
40 39 41 0
-40 -41 0
-39 -41 0
41 37 42 0
-41 -42 0
-37 -42 0
19 11 43 0
-19 -43 0
-11 -43 0
-43 -3 44 0
43 -44 0
3 -44 0
43 3 45 0
-43 -45 0
-3 -45 0
45 44 46 0
-45 -46 0
-44 -46 0
46 -42 47 0
-46 -47 0
42 -47 0
-47 -36 48 0
47 -48 0
36 -48 0
24 16 49 0
-24 -49 0
-16 -49 0
-49 -8 50 0
49 -50 0
8 -50 0
49 8 51 0
-49 -51 0
-8 -51 0
51 50 52 0
-51 -52 0
-50 -52 0
18 10 53 0
-18 -53 0
-10 -53 0
-53 2 54 0
53 -54 0
-2 -54 0
53 -2 55 0
-53 -55 0
2 -55 0
55 54 56 0
-55 -56 0
-54 -56 0
-56 52 57 0
56 -57 0
-52 -57 0
22 14 58 0
-22 -58 0
-14 -58 0
58 -6 59 0
-58 -59 0
6 -59 0
-58 6 60 0
58 -60 0
-6 -60 0
60 59 61 0
-60 -61 0
-59 -61 0
-61 -57 62 0
61 -62 0
57 -62 0
-62 -48 63 0
62 -63 0
48 -63 0
63 0
